amalgam/evaluation/solvers/graph.cnf
p cnf 54 70                 
-3 1 -9 0
9 -11 0
-4 2 -10 0
10 -11 0
-1 11 -12 0
12 -17 0
-5 1 -13 0
13 -15 0
-6 2 -14 0
14 -15 0
-2 15 -16 0
16 -17 0
17 -38 0
-3 18 0
-4 18 0
-18 1 -20 0
20 -22 0
-5 19 0
-6 19 0
-19 2 -21 0
21 -22 0
22 -38 0
-7 1 -23 0
23 -25 0
-8 2 -24 0
24 -25 0
25 -29 0
-8 -7 -26 0
26 -28 0
7 8 -27 0
27 -28 0
28 -29 0
29 -37 0
3 -30 0
7 -30 0
5 -32 0
8 -32 0
30 32 -34 0
4 -31 0
7 -31 0
6 -33 0
8 -33 0
31 33 -35 0
34 35 -36 0
36 -37 0
37 -38 0
-7 8 -39 0
39 -53 0
-7 -8 40 0
7 8 40 0
-8 8 40 0
-1 2 -41 0
-40 41 -42 0
42 -53 0
-1 -2 43 0
1 2 43 0
-2 2 43 0
-40 -43 44 0
-3 6 -45 0
-44 45 -46 0
46 -53 0
-3 -6 47 0
3 6 47 0
-6 6 47 0
-44 -47 48 0
-4 5 -49 0
-48 49 -50 0
50 -53 0
38 0
53 0
