amalgam/evaluation/solvers/graph.smt2
(declare-const v1 Bool)
(declare-const v2 Bool)
(declare-const v3 Bool)
(declare-const v4 Bool)
(declare-const v5 Bool)
(declare-const v6 Bool)
(declare-const v7 Bool)
(declare-const v8 Bool)
(declare-const v9 Bool)
(declare-const v10 Bool)
(declare-const v11 Bool)
(declare-const v12 Bool)
(declare-const v13 Bool)
(declare-const v14 Bool)
(declare-const v15 Bool)
(declare-const v16 Bool)
(declare-const v17 Bool)
(declare-const v18 Bool)
(declare-const v19 Bool)
(declare-const v20 Bool)
(declare-const v21 Bool)
(declare-const v22 Bool)
(declare-const v23 Bool)
(declare-const v24 Bool)
(declare-const v25 Bool)
(declare-const v26 Bool)
(declare-const v27 Bool)
(declare-const v28 Bool)
(declare-const v29 Bool)
(declare-const v30 Bool)
(declare-const v31 Bool)
(declare-const v32 Bool)
(declare-const v33 Bool)
(declare-const v34 Bool)
(declare-const v35 Bool)
(declare-const v36 Bool)
(declare-const v37 Bool)
(declare-const v38 Bool)
(declare-const v39 Bool)
(declare-const v40 Bool)
(declare-const v41 Bool)
(declare-const v42 Bool)
(declare-const v43 Bool)
(declare-const v44 Bool)
(declare-const v45 Bool)
(declare-const v46 Bool)
(declare-const v47 Bool)
(declare-const v48 Bool)
(declare-const v49 Bool)
(declare-const v50 Bool)
(declare-const v51 Bool)
(declare-const v52 Bool)
(declare-const v53 Bool)
(assert (or (not v3) v1 (not v9)))
(assert (or v9 (not v11)))
(assert (or (not v4) v2 (not v10)))
(assert (or v10 (not v11)))
(assert (or (not v1) v11 (not v12)))
(assert (or v12 (not v17)))
(assert (or (not v5) v1 (not v13)))
(assert (or v13 (not v15)))
(assert (or (not v6) v2 (not v14)))
(assert (or v14 (not v15)))
(assert (or (not v2) v15 (not v16)))
(assert (or v16 (not v17)))
(assert (or (not v3) v18))
(assert (or (not v4) v18))
(assert (or (not v18) v1 (not v20)))
(assert (or v20 (not v22)))
(assert (or (not v5) v19))
(assert (or (not v6) v19))
(assert (or (not v19) v2 (not v21)))
(assert (or v21 (not v22)))
(assert (or (not v7) v1 (not v23)))
(assert (or v23 (not v25)))
(assert (or (not v8) v2 (not v24)))
(assert (or v24 (not v25)))
(assert (or v25 (not v29)))
(assert (or (not v8) (not v7) (not v26)))
(assert (or v26 (not v28)))
(assert (or v7 v8 (not v27)))
(assert (or v27 (not v28)))
(assert (or v28 (not v29)))
(assert (or v29 (not v37)))
(assert (or v3 (not v30)))
(assert (or v7 (not v30)))
(assert (or v5 (not v32)))
(assert (or v8 (not v32)))
(assert (or v30 v32 (not v34)))
(assert (or v4 (not v31)))
(assert (or v7 (not v31)))
(assert (or v6 (not v33)))
(assert (or v8 (not v33)))
(assert (or v31 v33 (not v35)))
(assert (or v34 v35 (not v36)))
(assert (or v36 (not v37)))
(assert (or (not v7) v8 (not v38)))
(assert (or v38 (not v52)))
(assert (or (not v7) (not v8) v39))
(assert (or v7 v8 v39))
(assert (or (not v8) v8 v39))
(assert (or (not v1) v2 (not v40)))
(assert (or (not v39) v40 (not v41)))
(assert (or v41 (not v52)))
(assert (or (not v1) (not v2) v42))
(assert (or v1 v2 v42))
(assert (or (not v2) v2 v42))
(assert (or (not v39) (not v42) v43))
(assert (or (not v3) v6 (not v44)))
(assert (or (not v43) v44 (not v45)))
(assert (or v45 (not v52)))
(assert (or (not v3) (not v6) v46))
(assert (or v3 v6 v46))
(assert (or (not v6) v6 v46))
(assert (or (not v43) (not v46) v47))
(assert (or (not v4) v5 (not v48)))
(assert (or (not v47) v48 (not v49)))
(assert (or v49 (not v52)))
(assert (or v17))
(assert (or v22))
(assert (or v37))
(assert (or v52))
(push)
(check-sat)
(get-model)
(pop)
(assert (or (not v1) (not v2) v3 v4 (not v5) (not v6) v7 (not v8)))
